nK = 535;
nT = 4;
nI = 7;
L = 29;
TT = 130;
np = 1;
nc = 3;
b = [22, 62, 55, 54, 26, 39, 31];
d = [129, 120, 83, 137, 79, 60, 86];
m = [2.5, 2.5, 2.5, 1.3, 2.2, 1.5, 1.5];
pt = [0.22, 0.23, 0.23, 0.29];
st = [12.32, 13.8, 13.8, 17.11];
arc = {<1, 0, 1, 1, 0, 0, 0, [1, 1, 1, 1]>, <2, 1, 2, 1, 0, 0, 0, [1, 1, 1, 1]>, <3, 2, 3, 1, 0, 0, 0, [1, 1, 1, 1]>, <4, 3, 4, 1, 0, 0, 0, [1, 1, 1, 1]>, <5, 4, 5, 1, 0, 0, 0, [1, 1, 1, 1]>, <6, 5, 6, 1, 0, 0, 0, [1, 1, 1, 1]>, <7, 6, 7, 1, 0, 0, 0, [1, 1, 1, 1]>, <8, 7, 8, 1, 0, 0, 0, [1, 1, 1, 1]>, <9, 8, 9, 1, 0, 0, 0, [1, 1, 1, 1]>, <10, 9, 10, 1, 0, 0, 0, [1, 1, 1, 1]>, <11, 10, 11, 1, 0, 0, 0, [1, 1, 1, 1]>, <12, 11, 12, 1, 0, 0, 0, [1, 1, 1, 1]>, <13, 12, 13, 1, 0, 0, 0, [1, 1, 1, 1]>, <14, 13, 14, 1, 0, 0, 0, [1, 1, 1, 1]>, <15, 14, 15, 1, 0, 0, 0, [1, 1, 1, 1]>, <16, 15, 16, 1, 0, 0, 0, [1, 1, 1, 1]>, <17, 16, 17, 1, 0, 0, 0, [1, 1, 1, 1]>, <18, 17, 18, 1, 0, 0, 0, [1, 1, 1, 1]>, <19, 18, 19, 1, 0, 0, 0, [1, 1, 1, 1]>, <20, 19, 20, 1, 0, 0, 0, [1, 1, 1, 1]>, <21, 20, 21, 1, 0, 0, 0, [1, 1, 1, 1]>, <22, 21, 22, 1, 0, 0, 0, [1, 1, 1, 1]>, <23, 22, 23, 1, 0, 0, 0, [1, 1, 1, 1]>, <24, 23, 24, 1, 0, 0, 0, [1, 1, 1, 1]>, <25, 24, 25, 1, 0, 0, 0, [1, 1, 1, 1]>, <26, 25, 26, 1, 0, 0, 0, [1, 1, 1, 1]>, <27, 26, 27, 1, 0, 0, 0, [1, 1, 1, 1]>, <28, 27, 28, 1, 0, 0, 0, [1, 1, 1, 1]>, <29, 28, 29, 1, 0, 0, 0, [1, 1, 1, 1]>, <30, 4, 11, 7, 1, 0, 1, [1, 1, 1, 0]>, <31, 5, 12, 7, 1, 0, 1, [1, 1, 1, 0]>, <32, 11, 18, 7, 1, 0, 1, [1, 1, 1, 0]>, <33, 12, 19, 7, 1, 0, 1, [1, 1, 1, 0]>, <34, 17, 24, 7, 1, 0, 1, [1, 1, 1, 0]>, <35, 18, 25, 7, 1, 0, 1, [1, 1, 1, 0]>, <36, 19, 26, 7, 1, 0, 1, [1, 1, 1, 0]>, <37, 20, 27, 7, 1, 0, 1, [1, 1, 1, 0]>, <38, 3, 12, 9, 2, 0, 1, [1, 1, 0, 1]>, <39, 4, 13, 9, 2, 0, 1, [1, 1, 0, 1]>, <40, 5, 14, 9, 2, 0, 1, [1, 1, 0, 1]>, <41, 11, 20, 9, 2, 0, 1, [1, 1, 0, 1]>, <42, 12, 21, 9, 2, 0, 1, [1, 1, 0, 1]>, <43, 15, 24, 9, 2, 0, 1, [1, 1, 0, 1]>, <44, 16, 25, 9, 2, 0, 1, [1, 1, 0, 1]>, <45, 17, 26, 9, 2, 0, 1, [1, 1, 0, 1]>, <46, 18, 27, 9, 2, 0, 1, [1, 1, 0, 1]>, <47, 19, 28, 9, 2, 0, 1, [1, 1, 0, 1]>, <48, 20, 29, 9, 2, 0, 1, [1, 1, 0, 1]>, <49, 3, 12, 9, 3, 0, 0, [1, 1, 1, 0]>, <50, 4, 13, 9, 3, 0, 0, [1, 1, 1, 0]>, <51, 5, 14, 9, 3, 0, 0, [1, 1, 1, 0]>, <52, 11, 20, 9, 3, 0, 0, [1, 1, 1, 0]>, <53, 12, 21, 9, 3, 0, 0, [1, 1, 1, 0]>, <54, 15, 24, 9, 3, 0, 0, [1, 1, 1, 0]>, <55, 16, 25, 9, 3, 0, 0, [1, 1, 1, 0]>, <56, 17, 26, 9, 3, 0, 0, [1, 1, 1, 0]>, <57, 18, 27, 9, 3, 0, 0, [1, 1, 1, 0]>, <58, 19, 28, 9, 3, 0, 0, [1, 1, 1, 0]>, <59, 20, 29, 9, 3, 0, 0, [1, 1, 1, 0]>, <60, 2, 12, 10, 4, 0, 1, [0, 1, 1, 1]>, <61, 3, 13, 10, 4, 0, 1, [0, 1, 1, 1]>, <62, 4, 14, 10, 4, 0, 1, [0, 1, 1, 1]>, <63, 5, 15, 10, 4, 0, 1, [0, 1, 1, 1]>, <64, 10, 20, 10, 4, 0, 1, [0, 1, 1, 1]>, <65, 11, 21, 10, 4, 0, 1, [0, 1, 1, 1]>, <66, 12, 22, 10, 4, 0, 1, [0, 1, 1, 1]>, <67, 14, 24, 10, 4, 0, 1, [0, 1, 1, 1]>, <68, 15, 25, 10, 4, 0, 1, [0, 1, 1, 1]>, <69, 16, 26, 10, 4, 0, 1, [0, 1, 1, 1]>, <70, 17, 27, 10, 4, 0, 1, [0, 1, 1, 1]>, <71, 18, 28, 10, 4, 0, 1, [0, 1, 1, 1]>, <72, 19, 29, 10, 4, 0, 1, [0, 1, 1, 1]>, <73, 2, 12, 10, 5, 0, 1, [1, 0, 1, 1]>, <74, 3, 13, 10, 5, 0, 1, [1, 0, 1, 1]>, <75, 4, 14, 10, 5, 0, 1, [1, 0, 1, 1]>, <76, 5, 15, 10, 5, 0, 1, [1, 0, 1, 1]>, <77, 10, 20, 10, 5, 0, 1, [1, 0, 1, 1]>, <78, 11, 21, 10, 5, 0, 1, [1, 0, 1, 1]>, <79, 12, 22, 10, 5, 0, 1, [1, 0, 1, 1]>, <80, 14, 24, 10, 5, 0, 1, [1, 0, 1, 1]>, <81, 15, 25, 10, 5, 0, 1, [1, 0, 1, 1]>, <82, 16, 26, 10, 5, 0, 1, [1, 0, 1, 1]>, <83, 17, 27, 10, 5, 0, 1, [1, 0, 1, 1]>, <84, 18, 28, 10, 5, 0, 1, [1, 0, 1, 1]>, <85, 19, 29, 10, 5, 0, 1, [1, 0, 1, 1]>, <86, 1, 12, 11, 6, 1, 0, [1, 0, 1, 1]>, <87, 2, 13, 11, 6, 1, 0, [1, 0, 1, 1]>, <88, 3, 14, 11, 6, 1, 0, [1, 0, 1, 1]>, <89, 4, 15, 11, 6, 1, 0, [1, 0, 1, 1]>, <90, 5, 16, 11, 6, 1, 0, [1, 0, 1, 1]>, <91, 9, 20, 11, 6, 1, 0, [1, 0, 1, 1]>, <92, 10, 21, 11, 6, 1, 0, [1, 0, 1, 1]>, <93, 11, 22, 11, 6, 1, 0, [1, 0, 1, 1]>, <94, 12, 23, 11, 6, 1, 0, [1, 0, 1, 1]>, <95, 13, 24, 11, 6, 1, 0, [1, 0, 1, 1]>, <96, 14, 25, 11, 6, 1, 0, [1, 0, 1, 1]>, <97, 15, 26, 11, 6, 1, 0, [1, 0, 1, 1]>, <98, 16, 27, 11, 6, 1, 0, [1, 0, 1, 1]>, <99, 17, 28, 11, 6, 1, 0, [1, 0, 1, 1]>, <100, 18, 29, 11, 6, 1, 0, [1, 0, 1, 1]>, <101, 4, 11, 7, 7, 0, 1, [0, 1, 1, 1]>, <102, 5, 12, 7, 7, 0, 1, [0, 1, 1, 1]>, <103, 11, 18, 7, 7, 0, 1, [0, 1, 1, 1]>, <104, 12, 19, 7, 7, 0, 1, [0, 1, 1, 1]>, <105, 17, 24, 7, 7, 0, 1, [0, 1, 1, 1]>, <106, 18, 25, 7, 7, 0, 1, [0, 1, 1, 1]>, <107, 19, 26, 7, 7, 0, 1, [0, 1, 1, 1]>, <108, 20, 27, 7, 7, 0, 1, [0, 1, 1, 1]>};
